\ENCODING=ISO-8859-1
\Problem name: ilog.cplex

Minimize
 obj1: 102196 x1 + 93105 x2 + 108763 x3 + 90102 x4 + 96741 x5 + 108613 x6
       + 95142 x7 + 93373 x8 + 91900 x9 + 94633 x10 + 100458 x11 + 97029 x12
       + 100462 x13 + 109310 x14 + 106310 x15 + 108294 x16 + 107463 x17
       + 107239 x18 + 109793 x19 + 98565 x20 + 101359 x21 + 106402 x22
       + 92517 x23 + 101658 x24 + 98360 x25 + 94793 x26 + 100531 x27
       + 95636 x28 + 90090 x29 + 99702 x30 + 108488 x31 + 93530 x32
       + 100011 x33 + 102490 x34 + 97039 x35 + 100956 x36 + 95050 x37
       + 92174 x38 + 103725 x39 + 91926 x40 + 105423 x41 + 92258 x42
       + 94513 x43 + 108074 x44 + 97869 x45 + 106987 x46 + 105654 x47
       + 101092 x48 + 105341 x49 + 95549 x50 + 103676 x51 + 93292 x52
       + 99648 x53 + 95760 x54 + 105108 x55 + 107090 x56 + 102628 x57
       + 102361 x58 + 106904 x59 + 90552 x60 + 103253 x61 + 91558 x62
       + 90308 x63 + 107733 x64 + 104355 x65 + 105133 x66 + 107259 x67
       + 106747 x68 + 103089 x69 + 97743 x70 + 102566 x71 + 100697 x72
       + 90803 x73 + 94037 x74 + 107770 x75 + 93578 x76 + 93226 x77 + 99386 x78
       + 108527 x79 + 93451 x80 + 101832 x81 + 101230 x82 + 103823 x83
       + 95715 x84 + 103952 x85 + 95565 x86 + 105988 x87 + 98142 x88
       + 92714 x89 + 109012 x90 + 97282 x91 + 106344 x92 + 99957 x93
       + 92258 x94 + 108701 x95 + 93961 x96 + 97918 x97 + 91581 x98
       + 107132 x99 + 103151 x100 + 98824 x101 + 101802 x102 + 108114 x103
       + 107847 x104 + 105393 x105 + 106161 x106 + 93180 x107 + 94765 x108
       + 109876 x109 + 96494 x110 + 103131 x111 + 105293 x112 + 104361 x113
       + 100504 x114 + 101581 x115 + 105161 x116 + 90938 x117 + 102038 x118
       + 96721 x119 + 108195 x120 + 95454 x121 + 105599 x122 + 101543 x123
       + 103198 x124 + 101717 x125 + 106963 x126 + 102317 x127 + 103170 x128
       + 107557 x129 + 108549 x130 + 105768 x131 + 95007 x132 + 97102 x133
       + 91206 x134 + 93640 x135 + 96919 x136 + 99150 x137 + 91580 x138
       + 90319 x139 + 102841 x140 + 102406 x141 + 109541 x142 + 103257 x143
       + 109088 x144 + 104408 x145 + 107809 x146 + 105514 x147 + 107915 x148
       + 98089 x149 + 92667 x150 + 91155 x151 + 96560 x152 + 99947 x153
       + 96722 x154 + 109598 x155 + 90234 x156 + 99429 x157 + 97331 x158
       + 105959 x159 + 98011 x160 + 100437 x161 + 97605 x162 + 101025 x163
       + 101667 x164 + 92699 x165 + 90867 x166 + 96689 x167 + 109268 x168
       + 93342 x169 + 103939 x170 + 90510 x171 + 97674 x172 + 97077 x173
       + 109852 x174 + 106528 x175 + 91100 x176 + 107232 x177 + 96347 x178
       + 98545 x179 + 106500 x180 + 90774 x181 + 93120 x182 + 96664 x183
       + 109095 x184 + 99666 x185 + 92508 x186 + 93220 x187 + 94181 x188
       + 103697 x189 + 103292 x190 + 90707 x191 + 95165 x192 + 92600 x193
       + 97780 x194 + 99350 x195 + 99953 x196 + 106477 x197 + 97057 x198
       + 92326 x199 + 96948 x200 + 109211 x201 + 107727 x202 + 101919 x203
       + 103470 x204 + 97729 x205 + 107900 x206 + 106315 x207 + 98255 x208
       + 109251 x209 + 101683 x210 + 103747 x211 + 109080 x212 + 107953 x213
       + 91462 x214 + 92760 x215 + 91934 x216 + 102299 x217 + 102895 x218
       + 100018 x219 + 109081 x220 + 104816 x221 + 98825 x222 + 100403 x223
       + 109970 x224 + 97170 x225 + 95186 x226 + 98056 x227 + 101121 x228
       + 105161 x229 + 104538 x230 + 101591 x231 + 98986 x232 + 100607 x233
       + 100960 x234 + 91851 x235 + 93215 x236 + 90078 x237 + 103847 x238
       + 106409 x239 + 106834 x240 + 104588 x241 + 104356 x242 + 98577 x243
       + 98552 x244 + 90981 x245 + 102398 x246 + 93619 x247 + 92137 x248
       + 95540 x249 + 106651 x250 + 96119 x251 + 100529 x252 + 104405 x253
       + 93363 x254 + 93262 x255 + 93898 x256 + 104537 x257 + 101698 x258
       + 90982 x259 + 100771 x260 + 99689 x261 + 91620 x262 + 98613 x263
       + 105568 x264 + 95734 x265 + 90895 x266 + 103349 x267 + 100222 x268
       + 97019 x269 + 96205 x270 + 109063 x271 + 94416 x272 + 105135 x273
       + 102575 x274 + 94112 x275 + 100997 x276 + 106806 x277 + 95214 x278
       + 98342 x279 + 105839 x280 + 98587 x281 + 108321 x282 + 100814 x283
       + 104671 x284 + 102605 x285 + 96561 x286 + 96658 x287 + 103382 x288
       + 99816 x289 + 96619 x290 + 103967 x291 + 92794 x292 + 105065 x293
       + 98623 x294 + 109811 x295 + 104136 x296 + 91703 x297 + 100208 x298
       + 98201 x299 + 52484 x300 + 20168 x301 + 21354 x302 + 21142 x303
       + 20500 x304 + 21730 x305 + 21141 x306 + 20754 x307 + 18582 x308
       + 20254 x309 + 20562 x310 + 21853 x311 + 18477 x312 + 21227 x313
       + 19943 x314 + 19114 x315 + 20549 x316 + 19106 x317 + 20590 x318
       + 18072 x319 + 21029 x320 + 18569 x321 + 21865 x322 + 20154 x323
       + 18192 x324 + 19458 x325 + 18835 x326 + 18873 x327 + 18576 x328
       + 21398 x329 + 18376 x330 + 21624 x331 + 20073 x332 + 18031 x333
       + 21842 x334 + 20156 x335 + 20103 x336 + 19180 x337 + 19958 x338
       + 21821 x339 + 21822 x340 + 21943 x341 + 18540 x342 + 19139 x343
       + 21468 x344 + 20855 x345 + 21964 x346 + 20976 x347 + 19430 x348
       + 18694 x349 + 20994 x350 + 18806 x351 + 18511 x352 + 21382 x353
       + 18642 x354 + 20061 x355 + 19122 x356 + 20635 x357 + 18200 x358
       + 19482 x359 + 16103 x360
Subject To
 c1:   - x1 - x18 - x21 - x25 + x33 - x36 + x52 + x58 - x59  = 0
 c2:   - x61 - x78 - x81 - x85 + x93 - x96 + x112 + x118 - x119  = 0
 c3:   - x121 - x138 - x141 - x145 + x153 - x156 + x172 + x178 - x179  = 0
 c4:   - x181 - x198 - x201 - x205 + x213 - x216 + x232 + x238 - x239  = 0
 c5:   - x241 - x258 - x261 - x265 + x273 - x276 + x292 + x298 - x299  = -1
 c6:   - x2 + x3 + x5 + x11 - x14 + x15 + x19 + x21 - x30 - x31 - x35 - x46
       - x50 - x51  = 0
 c7:   - x62 + x63 + x65 + x71 - x74 + x75 + x79 + x81 - x90 - x91 - x95 - x106
       - x110 - x111  = 0
 c8:   - x122 + x123 + x125 + x131 - x134 + x135 + x139 + x141 - x150 - x151
       - x155 - x166 - x170 - x171  = -1
 c9:   - x182 + x183 + x185 + x191 - x194 + x195 + x199 + x201 - x210 - x211
       - x215 - x226 - x230 - x231  = 1
 c10:  - x242 + x243 + x245 + x251 - x254 + x255 + x259 + x261 - x270 - x271
       - x275 - x286 - x290 - x291  = 0
 c11:  - x5 + x7 - x9 - x10 - x17 + x18 + x29 + x46 - x47 - x48 + x49 + x53
        = 0
 c12:  - x65 + x67 - x69 - x70 - x77 + x78 + x89 + x106 - x107 - x108 + x109
       + x113  = 0
 c13:  - x125 + x127 - x129 - x130 - x137 + x138 + x149 + x166 - x167 - x168
       + x169 + x173  = 0
 c14:  - x185 + x187 - x189 - x190 - x197 + x198 + x209 + x226 - x227 - x228
       + x229 + x233  = 0
 c15:  - x245 + x247 - x249 - x250 - x257 + x258 + x269 + x286 - x287 - x288
       + x289 + x293  = 0
 c16:  x4 + x8 + x9 - x13 - x20 - x24 - x26 - x33 - x34 + x40 + x42 - x44 + x51
       + x54 + x56  = -1
 c17:  x64 + x68 + x69 - x73 - x80 - x84 - x86 - x93 - x94 + x100 + x102 - x104
       + x111 + x114 + x116  = 0
 c18:  x124 + x128 + x129 - x133 - x140 - x144 - x146 - x153 - x154 + x160
       + x162 - x164 + x171 + x174 + x176  = 0
 c19:  x184 + x188 + x189 - x193 - x200 - x204 - x206 - x213 - x214 + x220
       + x222 - x224 + x231 + x234 + x236  = -1
 c20:  x244 + x248 + x249 - x253 - x260 - x264 - x266 - x273 - x274 + x280
       + x282 - x284 + x291 + x294 + x296  = 1
 c21:  x6 + x10 - x11 + x13 + x14 - x39 - x42 - x49 - x57 - x60  = 0
 c22:  x66 + x70 - x71 + x73 + x74 - x99 - x102 - x109 - x117 - x120  = 1
 c23:  x126 + x130 - x131 + x133 + x134 - x159 - x162 - x169 - x177 - x180  = 0
 c24:  x186 + x190 - x191 + x193 + x194 - x219 - x222 - x229 - x237 - x240  = 0
 c25:  x246 + x250 - x251 + x253 + x254 - x279 - x282 - x289 - x297 - x300  = 0
 c26:  - x4 - x16 - x22 + x25 + x32 + x34 - x37 + x48 + x50  = 0
 c27:  - x64 - x76 - x82 + x85 + x92 + x94 - x97 + x108 + x110  = 0
 c28:  - x124 - x136 - x142 + x145 + x152 + x154 - x157 + x168 + x170  = 0
 c29:  - x184 - x196 - x202 + x205 + x212 + x214 - x217 + x228 + x230  = 0
 c30:  - x244 - x256 - x262 + x265 + x272 + x274 - x277 + x288 + x290  = 0
 c31:  - x6 + x12 + x16 - x19 + x20 + x30 - x32 + x38 - x40 + x41 - x43 - x53
       + x59 + x60  = 1
 c32:  - x66 + x72 + x76 - x79 + x80 + x90 - x92 + x98 - x100 + x101 - x103
       - x113 + x119 + x120  = -1
 c33:  - x126 + x132 + x136 - x139 + x140 + x150 - x152 + x158 - x160 + x161
       - x163 - x173 + x179 + x180  = 0
 c34:  - x186 + x192 + x196 - x199 + x200 + x210 - x212 + x218 - x220 + x221
       - x223 - x233 + x239 + x240  = 0
 c35:  - x246 + x252 + x256 - x259 + x260 + x270 - x272 + x278 - x280 + x281
       - x283 - x293 + x299 + x300  = 0
 c36:  x1 - x7 - x8 - x15 + x17 + x23 + x26 - x27 + x35 + x39 - x41 + x43 + x45
        = 0
 c37:  x61 - x67 - x68 - x75 + x77 + x83 + x86 - x87 + x95 + x99 - x101 + x103
       + x105  = 0
 c38:  x121 - x127 - x128 - x135 + x137 + x143 + x146 - x147 + x155 + x159
       - x161 + x163 + x165  = 1
 c39:  x181 - x187 - x188 - x195 + x197 + x203 + x206 - x207 + x215 + x219
       - x221 + x223 + x225  = 0
 c40:  x241 - x247 - x248 - x255 + x257 + x263 + x266 - x267 + x275 + x279
       - x281 + x283 + x285  = 0
 c41:  x2 - x3 - x12 + x27 + x28 - x29 + x37 + x44 - x45 - x52 - x54 - x55  = 0
 c42:  x62 - x63 - x72 + x87 + x88 - x89 + x97 + x104 - x105 - x112 - x114
       - x115  = 0
 c43:  x122 - x123 - x132 + x147 + x148 - x149 + x157 + x164 - x165 - x172
       - x174 - x175  = 0
 c44:  x182 - x183 - x192 + x207 + x208 - x209 + x217 + x224 - x225 - x232
       - x234 - x235  = 0
 c45:  x242 - x243 - x252 + x267 + x268 - x269 + x277 + x284 - x285 - x292
       - x294 - x295  = 0
 c46:  x22 - x23 + x24 - x28 + x31 + x36 - x38 + x47 + x55 - x56 + x57 - x58
        = 0
 c47:  x82 - x83 + x84 - x88 + x91 + x96 - x98 + x107 + x115 - x116 + x117
       - x118  = 0
 c48:  x142 - x143 + x144 - x148 + x151 + x156 - x158 + x167 + x175 - x176
       + x177 - x178  = 0
 c49:  x202 - x203 + x204 - x208 + x211 + x216 - x218 + x227 + x235 - x236
       + x237 - x238  = 0
 c50:  x262 - x263 + x264 - x268 + x271 + x276 - x278 + x287 + x295 - x296
       + x297 - x298  = 0
 c51:  4 x1 + 4 x61 + 4 x121 + 4 x181 + 4 x241 - 2 x301 <= 0
 c52:  4 x2 + 4 x62 + 4 x122 + 4 x182 + 4 x242 - 2 x302 <= 0
 c53:  4 x3 + 4 x63 + 4 x123 + 4 x183 + 4 x243 - 2 x303 <= 0
 c54:  4 x4 + 4 x64 + 4 x124 + 4 x184 + 4 x244 - 2 x304 <= 0
 c55:  4 x5 + 4 x65 + 4 x125 + 4 x185 + 4 x245 - 2 x305 <= 0
 c56:  4 x6 + 4 x66 + 4 x126 + 4 x186 + 4 x246 - 2 x306 <= 0
 c57:  4 x7 + 4 x67 + 4 x127 + 4 x187 + 4 x247 - 2 x307 <= 0
 c58:  4 x8 + 4 x68 + 4 x128 + 4 x188 + 4 x248 - 2 x308 <= 0
 c59:  4 x9 + 4 x69 + 4 x129 + 4 x189 + 4 x249 - 2 x309 <= 0
 c60:  4 x10 + 4 x70 + 4 x130 + 4 x190 + 4 x250 - 2 x310 <= 0
 c61:  4 x11 + 4 x71 + 4 x131 + 4 x191 + 4 x251 - 2 x311 <= 0
 c62:  4 x12 + 4 x72 + 4 x132 + 4 x192 + 4 x252 - 2 x312 <= 0
 c63:  4 x13 + 4 x73 + 4 x133 + 4 x193 + 4 x253 - 2 x313 <= 0
 c64:  4 x14 + 4 x74 + 4 x134 + 4 x194 + 4 x254 - 2 x314 <= 0
 c65:  4 x15 + 4 x75 + 4 x135 + 4 x195 + 4 x255 - 2 x315 <= 0
 c66:  4 x16 + 4 x76 + 4 x136 + 4 x196 + 4 x256 - 2 x316 <= 0
 c67:  4 x17 + 4 x77 + 4 x137 + 4 x197 + 4 x257 - 2 x317 <= 0
 c68:  4 x18 + 4 x78 + 4 x138 + 4 x198 + 4 x258 - 2 x318 <= 0
 c69:  4 x19 + 4 x79 + 4 x139 + 4 x199 + 4 x259 - 2 x319 <= 0
 c70:  4 x20 + 4 x80 + 4 x140 + 4 x200 + 4 x260 - 2 x320 <= 0
 c71:  4 x21 + 4 x81 + 4 x141 + 4 x201 + 4 x261 - 2 x321 <= 0
 c72:  4 x22 + 4 x82 + 4 x142 + 4 x202 + 4 x262 - 2 x322 <= 0
 c73:  4 x23 + 4 x83 + 4 x143 + 4 x203 + 4 x263 - 2 x323 <= 0
 c74:  4 x24 + 4 x84 + 4 x144 + 4 x204 + 4 x264 - 2 x324 <= 0
 c75:  4 x25 + 4 x85 + 4 x145 + 4 x205 + 4 x265 - 2 x325 <= 0
 c76:  4 x26 + 4 x86 + 4 x146 + 4 x206 + 4 x266 - 2 x326 <= 0
 c77:  4 x27 + 4 x87 + 4 x147 + 4 x207 + 4 x267 - 2 x327 <= 0
 c78:  4 x28 + 4 x88 + 4 x148 + 4 x208 + 4 x268 - 2 x328 <= 0
 c79:  4 x29 + 4 x89 + 4 x149 + 4 x209 + 4 x269 - 2 x329 <= 0
 c80:  4 x30 + 4 x90 + 4 x150 + 4 x210 + 4 x270 - 2 x330 <= 0
 c81:  4 x31 + 4 x91 + 4 x151 + 4 x211 + 4 x271 - 2 x331 <= 0
 c82:  4 x32 + 4 x92 + 4 x152 + 4 x212 + 4 x272 - 2 x332 <= 0
 c83:  4 x33 + 4 x93 + 4 x153 + 4 x213 + 4 x273 - 2 x333 <= 0
 c84:  4 x34 + 4 x94 + 4 x154 + 4 x214 + 4 x274 - 2 x334 <= 0
 c85:  4 x35 + 4 x95 + 4 x155 + 4 x215 + 4 x275 - 2 x335 <= 0
 c86:  4 x36 + 4 x96 + 4 x156 + 4 x216 + 4 x276 - 2 x336 <= 0
 c87:  4 x37 + 4 x97 + 4 x157 + 4 x217 + 4 x277 - 2 x337 <= 0
 c88:  4 x38 + 4 x98 + 4 x158 + 4 x218 + 4 x278 - 2 x338 <= 0
 c89:  4 x39 + 4 x99 + 4 x159 + 4 x219 + 4 x279 - 2 x339 <= 0
 c90:  4 x40 + 4 x100 + 4 x160 + 4 x220 + 4 x280 - 2 x340 <= 0
 c91:  4 x41 + 4 x101 + 4 x161 + 4 x221 + 4 x281 - 2 x341 <= 0
 c92:  4 x42 + 4 x102 + 4 x162 + 4 x222 + 4 x282 - 2 x342 <= 0
 c93:  4 x43 + 4 x103 + 4 x163 + 4 x223 + 4 x283 - 2 x343 <= 0
 c94:  4 x44 + 4 x104 + 4 x164 + 4 x224 + 4 x284 - 2 x344 <= 0
 c95:  4 x45 + 4 x105 + 4 x165 + 4 x225 + 4 x285 - 2 x345 <= 0
 c96:  4 x46 + 4 x106 + 4 x166 + 4 x226 + 4 x286 - 2 x346 <= 0
 c97:  4 x47 + 4 x107 + 4 x167 + 4 x227 + 4 x287 - 2 x347 <= 0
 c98:  4 x48 + 4 x108 + 4 x168 + 4 x228 + 4 x288 - 2 x348 <= 0
 c99:  4 x49 + 4 x109 + 4 x169 + 4 x229 + 4 x289 - 2 x349 <= 0
 c100: 4 x50 + 4 x110 + 4 x170 + 4 x230 + 4 x290 - 2 x350 <= 0
 c101: 4 x51 + 4 x111 + 4 x171 + 4 x231 + 4 x291 - 2 x351 <= 0
 c102: 4 x52 + 4 x112 + 4 x172 + 4 x232 + 4 x292 - 2 x352 <= 0
 c103: 4 x53 + 4 x113 + 4 x173 + 4 x233 + 4 x293 - 2 x353 <= 0
 c104: 4 x54 + 4 x114 + 4 x174 + 4 x234 + 4 x294 - 2 x354 <= 0
 c105: 4 x55 + 4 x115 + 4 x175 + 4 x235 + 4 x295 - 2 x355 <= 0
 c106: 4 x56 + 4 x116 + 4 x176 + 4 x236 + 4 x296 - 2 x356 <= 0
 c107: 4 x57 + 4 x117 + 4 x177 + 4 x237 + 4 x297 - 2 x357 <= 0
 c108: 4 x58 + 4 x118 + 4 x178 + 4 x238 + 4 x298 - 2 x358 <= 0
 c109: 4 x59 + 4 x119 + 4 x179 + 4 x239 + 4 x299 - 2 x359 <= 0
 c110: 4 x60 + 4 x120 + 4 x180 + 4 x240 + 4 x300 - 2 x360 <= 0
Bounds
 0 <= x1 <= 1
 0 <= x2 <= 1
 0 <= x3 <= 1
 0 <= x4 <= 1
 0 <= x5 <= 1
 0 <= x6 <= 1
 0 <= x7 <= 1
 0 <= x8 <= 1
 0 <= x9 <= 1
 0 <= x10 <= 1
 0 <= x11 <= 1
 0 <= x12 <= 1
 0 <= x13 <= 1
 0 <= x14 <= 1
 0 <= x15 <= 1
 0 <= x16 <= 1
 0 <= x17 <= 1
 0 <= x18 <= 1
 0 <= x19 <= 1
 0 <= x20 <= 1
 0 <= x21 <= 1
 0 <= x22 <= 1
 0 <= x23 <= 1
 0 <= x24 <= 1
 0 <= x25 <= 1
 0 <= x26 <= 1
 0 <= x27 <= 1
 0 <= x28 <= 1
 0 <= x29 <= 1
 0 <= x30 <= 1
 0 <= x31 <= 1
 0 <= x32 <= 1
 0 <= x33 <= 1
 0 <= x34 <= 1
 0 <= x35 <= 1
 0 <= x36 <= 1
 0 <= x37 <= 1
 0 <= x38 <= 1
 0 <= x39 <= 1
 0 <= x40 <= 1
 0 <= x41 <= 1
 0 <= x42 <= 1
 0 <= x43 <= 1
 0 <= x44 <= 1
 0 <= x45 <= 1
 0 <= x46 <= 1
 0 <= x47 <= 1
 0 <= x48 <= 1
 0 <= x49 <= 1
 0 <= x50 <= 1
 0 <= x51 <= 1
 0 <= x52 <= 1
 0 <= x53 <= 1
 0 <= x54 <= 1
 0 <= x55 <= 1
 0 <= x56 <= 1
 0 <= x57 <= 1
 0 <= x58 <= 1
 0 <= x59 <= 1
 0 <= x60 <= 1
 0 <= x61 <= 1
 0 <= x62 <= 1
 0 <= x63 <= 1
 0 <= x64 <= 1
 0 <= x65 <= 1
 0 <= x66 <= 1
 0 <= x67 <= 1
 0 <= x68 <= 1
 0 <= x69 <= 1
 0 <= x70 <= 1
 0 <= x71 <= 1
 0 <= x72 <= 1
 0 <= x73 <= 1
 0 <= x74 <= 1
 0 <= x75 <= 1
 0 <= x76 <= 1
 0 <= x77 <= 1
 0 <= x78 <= 1
 0 <= x79 <= 1
 0 <= x80 <= 1
 0 <= x81 <= 1
 0 <= x82 <= 1
 0 <= x83 <= 1
 0 <= x84 <= 1
 0 <= x85 <= 1
 0 <= x86 <= 1
 0 <= x87 <= 1
 0 <= x88 <= 1
 0 <= x89 <= 1
 0 <= x90 <= 1
 0 <= x91 <= 1
 0 <= x92 <= 1
 0 <= x93 <= 1
 0 <= x94 <= 1
 0 <= x95 <= 1
 0 <= x96 <= 1
 0 <= x97 <= 1
 0 <= x98 <= 1
 0 <= x99 <= 1
 0 <= x100 <= 1
 0 <= x101 <= 1
 0 <= x102 <= 1
 0 <= x103 <= 1
 0 <= x104 <= 1
 0 <= x105 <= 1
 0 <= x106 <= 1
 0 <= x107 <= 1
 0 <= x108 <= 1
 0 <= x109 <= 1
 0 <= x110 <= 1
 0 <= x111 <= 1
 0 <= x112 <= 1
 0 <= x113 <= 1
 0 <= x114 <= 1
 0 <= x115 <= 1
 0 <= x116 <= 1
 0 <= x117 <= 1
 0 <= x118 <= 1
 0 <= x119 <= 1
 0 <= x120 <= 1
 0 <= x121 <= 1
 0 <= x122 <= 1
 0 <= x123 <= 1
 0 <= x124 <= 1
 0 <= x125 <= 1
 0 <= x126 <= 1
 0 <= x127 <= 1
 0 <= x128 <= 1
 0 <= x129 <= 1
 0 <= x130 <= 1
 0 <= x131 <= 1
 0 <= x132 <= 1
 0 <= x133 <= 1
 0 <= x134 <= 1
 0 <= x135 <= 1
 0 <= x136 <= 1
 0 <= x137 <= 1
 0 <= x138 <= 1
 0 <= x139 <= 1
 0 <= x140 <= 1
 0 <= x141 <= 1
 0 <= x142 <= 1
 0 <= x143 <= 1
 0 <= x144 <= 1
 0 <= x145 <= 1
 0 <= x146 <= 1
 0 <= x147 <= 1
 0 <= x148 <= 1
 0 <= x149 <= 1
 0 <= x150 <= 1
 0 <= x151 <= 1
 0 <= x152 <= 1
 0 <= x153 <= 1
 0 <= x154 <= 1
 0 <= x155 <= 1
 0 <= x156 <= 1
 0 <= x157 <= 1
 0 <= x158 <= 1
 0 <= x159 <= 1
 0 <= x160 <= 1
 0 <= x161 <= 1
 0 <= x162 <= 1
 0 <= x163 <= 1
 0 <= x164 <= 1
 0 <= x165 <= 1
 0 <= x166 <= 1
 0 <= x167 <= 1
 0 <= x168 <= 1
 0 <= x169 <= 1
 0 <= x170 <= 1
 0 <= x171 <= 1
 0 <= x172 <= 1
 0 <= x173 <= 1
 0 <= x174 <= 1
 0 <= x175 <= 1
 0 <= x176 <= 1
 0 <= x177 <= 1
 0 <= x178 <= 1
 0 <= x179 <= 1
 0 <= x180 <= 1
 0 <= x181 <= 1
 0 <= x182 <= 1
 0 <= x183 <= 1
 0 <= x184 <= 1
 0 <= x185 <= 1
 0 <= x186 <= 1
 0 <= x187 <= 1
 0 <= x188 <= 1
 0 <= x189 <= 1
 0 <= x190 <= 1
 0 <= x191 <= 1
 0 <= x192 <= 1
 0 <= x193 <= 1
 0 <= x194 <= 1
 0 <= x195 <= 1
 0 <= x196 <= 1
 0 <= x197 <= 1
 0 <= x198 <= 1
 0 <= x199 <= 1
 0 <= x200 <= 1
 0 <= x201 <= 1
 0 <= x202 <= 1
 0 <= x203 <= 1
 0 <= x204 <= 1
 0 <= x205 <= 1
 0 <= x206 <= 1
 0 <= x207 <= 1
 0 <= x208 <= 1
 0 <= x209 <= 1
 0 <= x210 <= 1
 0 <= x211 <= 1
 0 <= x212 <= 1
 0 <= x213 <= 1
 0 <= x214 <= 1
 0 <= x215 <= 1
 0 <= x216 <= 1
 0 <= x217 <= 1
 0 <= x218 <= 1
 0 <= x219 <= 1
 0 <= x220 <= 1
 0 <= x221 <= 1
 0 <= x222 <= 1
 0 <= x223 <= 1
 0 <= x224 <= 1
 0 <= x225 <= 1
 0 <= x226 <= 1
 0 <= x227 <= 1
 0 <= x228 <= 1
 0 <= x229 <= 1
 0 <= x230 <= 1
 0 <= x231 <= 1
 0 <= x232 <= 1
 0 <= x233 <= 1
 0 <= x234 <= 1
 0 <= x235 <= 1
 0 <= x236 <= 1
 0 <= x237 <= 1
 0 <= x238 <= 1
 0 <= x239 <= 1
 0 <= x240 <= 1
 0 <= x241 <= 1
 0 <= x242 <= 1
 0 <= x243 <= 1
 0 <= x244 <= 1
 0 <= x245 <= 1
 0 <= x246 <= 1
 0 <= x247 <= 1
 0 <= x248 <= 1
 0 <= x249 <= 1
 0 <= x250 <= 1
 0 <= x251 <= 1
 0 <= x252 <= 1
 0 <= x253 <= 1
 0 <= x254 <= 1
 0 <= x255 <= 1
 0 <= x256 <= 1
 0 <= x257 <= 1
 0 <= x258 <= 1
 0 <= x259 <= 1
 0 <= x260 <= 1
 0 <= x261 <= 1
 0 <= x262 <= 1
 0 <= x263 <= 1
 0 <= x264 <= 1
 0 <= x265 <= 1
 0 <= x266 <= 1
 0 <= x267 <= 1
 0 <= x268 <= 1
 0 <= x269 <= 1
 0 <= x270 <= 1
 0 <= x271 <= 1
 0 <= x272 <= 1
 0 <= x273 <= 1
 0 <= x274 <= 1
 0 <= x275 <= 1
 0 <= x276 <= 1
 0 <= x277 <= 1
 0 <= x278 <= 1
 0 <= x279 <= 1
 0 <= x280 <= 1
 0 <= x281 <= 1
 0 <= x282 <= 1
 0 <= x283 <= 1
 0 <= x284 <= 1
 0 <= x285 <= 1
 0 <= x286 <= 1
 0 <= x287 <= 1
 0 <= x288 <= 1
 0 <= x289 <= 1
 0 <= x290 <= 1
 0 <= x291 <= 1
 0 <= x292 <= 1
 0 <= x293 <= 1
 0 <= x294 <= 1
 0 <= x295 <= 1
 0 <= x296 <= 1
 0 <= x297 <= 1
 0 <= x298 <= 1
 0 <= x299 <= 1
 0 <= x300 <= 1
 0 <= x301 <= 1
 0 <= x302 <= 1
 0 <= x303 <= 1
 0 <= x304 <= 1
 0 <= x305 <= 1
 0 <= x306 <= 1
 0 <= x307 <= 1
 0 <= x308 <= 1
 0 <= x309 <= 1
 0 <= x310 <= 1
 0 <= x311 <= 1
 0 <= x312 <= 1
 0 <= x313 <= 1
 0 <= x314 <= 1
 0 <= x315 <= 1
 0 <= x316 <= 1
 0 <= x317 <= 1
 0 <= x318 <= 1
 0 <= x319 <= 1
 0 <= x320 <= 1
 0 <= x321 <= 1
 0 <= x322 <= 1
 0 <= x323 <= 1
 0 <= x324 <= 1
 0 <= x325 <= 1
 0 <= x326 <= 1
 0 <= x327 <= 1
 0 <= x328 <= 1
 0 <= x329 <= 1
 0 <= x330 <= 1
 0 <= x331 <= 1
 0 <= x332 <= 1
 0 <= x333 <= 1
 0 <= x334 <= 1
 0 <= x335 <= 1
 0 <= x336 <= 1
 0 <= x337 <= 1
 0 <= x338 <= 1
 0 <= x339 <= 1
 0 <= x340 <= 1
 0 <= x341 <= 1
 0 <= x342 <= 1
 0 <= x343 <= 1
 0 <= x344 <= 1
 0 <= x345 <= 1
 0 <= x346 <= 1
 0 <= x347 <= 1
 0 <= x348 <= 1
 0 <= x349 <= 1
 0 <= x350 <= 1
 0 <= x351 <= 1
 0 <= x352 <= 1
 0 <= x353 <= 1
 0 <= x354 <= 1
 0 <= x355 <= 1
 0 <= x356 <= 1
 0 <= x357 <= 1
 0 <= x358 <= 1
 0 <= x359 <= 1
 0 <= x360 <= 1
Binaries
 x301  x302  x303  x304  x305  x306  x307  x308  x309  x310  x311  x312  x313 
 x314  x315  x316  x317  x318  x319  x320  x321  x322  x323  x324  x325  x326 
 x327  x328  x329  x330  x331  x332  x333  x334  x335  x336  x337  x338  x339 
 x340  x341  x342  x343  x344  x345  x346  x347  x348  x349  x350  x351  x352 
 x353  x354  x355  x356  x357  x358  x359  x360 
End
